NAME : kroC100-C-3-1-a__bsl_same_priority_ls__26015.tour
COMMENT : Length = 26015.000
COMMENT : Generated by compare_sota_instances.py for bsl_same_priority_ls
TYPE : TOUR
DIMENSION : 100
TOUR_SECTION
16
51
63
44
66
48
84
11
52
87
96
97
81
45
33
100
74
57
36
10
92
19
99
4
60
1
53
85
40
12
46
24
32
61
26
7
82
78
9
37
29
18
49
93
14
69
21
70
76
91
94
95
86
5
43
56
71
38
28
88
39
72
83
62
50
2
35
68
23
89
41
59
3
73
30
77
80
6
54
75
22
98
58
34
90
25
17
8
47
31
67
55
42
20
64
79
65
13
15
27
-1
EOF
